p cnf 190 566
1 11 21 0
2 12 22 0
3 13 23 0
4 14 24 0
5 15 25 0
6 16 26 0
7 17 27 0
8 18 28 0
9 19 29 0
10 20 30 0
131 -1 -11 0
-131 1 0
-131 -11 0
132 -2 -12 0
-132 2 0
-132 -12 0
133 -3 -13 0
-133 3 0
-133 -13 0
134 -4 -14 0
-134 4 0
-134 -14 0
135 -5 -15 0
-135 5 0
-135 -15 0
136 -6 -16 0
-136 6 0
-136 -16 0
137 -7 -17 0
-137 7 0
-137 -17 0
138 -8 -18 0
-138 8 0
-138 -18 0
139 -9 -19 0
-139 9 0
-139 -19 0
140 -10 -20 0
-140 10 0
-140 -20 0
131 132 133 134 135 136 137 138 139 140 0
141 -1 -21 0
-141 1 0
-141 -21 0
142 -2 -22 0
-142 2 0
-142 -22 0
143 -3 -23 0
-143 3 0
-143 -23 0
144 -4 -24 0
-144 4 0
-144 -24 0
145 -5 -25 0
-145 5 0
-145 -25 0
146 -6 -26 0
-146 6 0
-146 -26 0
147 -7 -27 0
-147 7 0
-147 -27 0
148 -8 -28 0
-148 8 0
-148 -28 0
149 -9 -29 0
-149 9 0
-149 -29 0
150 -10 -30 0
-150 10 0
-150 -30 0
141 142 143 144 145 146 147 148 149 150 0
151 -11 -1 0
-151 11 0
-151 -1 0
152 -12 -2 0
-152 12 0
-152 -2 0
153 -13 -3 0
-153 13 0
-153 -3 0
154 -14 -4 0
-154 14 0
-154 -4 0
155 -15 -5 0
-155 15 0
-155 -5 0
156 -16 -6 0
-156 16 0
-156 -6 0
157 -17 -7 0
-157 17 0
-157 -7 0
158 -18 -8 0
-158 18 0
-158 -8 0
159 -19 -9 0
-159 19 0
-159 -9 0
160 -20 -10 0
-160 20 0
-160 -10 0
151 152 153 154 155 156 157 158 159 160 0
161 -11 -21 0
-161 11 0
-161 -21 0
162 -12 -22 0
-162 12 0
-162 -22 0
163 -13 -23 0
-163 13 0
-163 -23 0
164 -14 -24 0
-164 14 0
-164 -24 0
165 -15 -25 0
-165 15 0
-165 -25 0
166 -16 -26 0
-166 16 0
-166 -26 0
167 -17 -27 0
-167 17 0
-167 -27 0
168 -18 -28 0
-168 18 0
-168 -28 0
169 -19 -29 0
-169 19 0
-169 -29 0
170 -20 -30 0
-170 20 0
-170 -30 0
161 162 163 164 165 166 167 168 169 170 0
171 -21 -1 0
-171 21 0
-171 -1 0
172 -22 -2 0
-172 22 0
-172 -2 0
173 -23 -3 0
-173 23 0
-173 -3 0
174 -24 -4 0
-174 24 0
-174 -4 0
175 -25 -5 0
-175 25 0
-175 -5 0
176 -26 -6 0
-176 26 0
-176 -6 0
177 -27 -7 0
-177 27 0
-177 -7 0
178 -28 -8 0
-178 28 0
-178 -8 0
179 -29 -9 0
-179 29 0
-179 -9 0
180 -30 -10 0
-180 30 0
-180 -10 0
171 172 173 174 175 176 177 178 179 180 0
181 -21 -11 0
-181 21 0
-181 -11 0
182 -22 -12 0
-182 22 0
-182 -12 0
183 -23 -13 0
-183 23 0
-183 -13 0
184 -24 -14 0
-184 24 0
-184 -14 0
185 -25 -15 0
-185 25 0
-185 -15 0
186 -26 -16 0
-186 26 0
-186 -16 0
187 -27 -17 0
-187 27 0
-187 -17 0
188 -28 -18 0
-188 28 0
-188 -18 0
189 -29 -19 0
-189 29 0
-189 -19 0
190 -30 -20 0
-190 30 0
-190 -20 0
181 182 183 184 185 186 187 188 189 190 0
31 0
32 0
33 0
-34 0
35 0
-36 0
-37 0
38 0
-39 0
-40 0
41 0
42 0
43 0
-44 0
45 0
-46 0
-47 0
48 0
-49 0
-50 0
51 0
52 0
53 0
54 0
55 0
-56 0
-57 0
58 0
-59 0
-60 0
-61 0
-62 0
63 0
64 0
65 0
66 0
67 0
-68 0
-69 0
-70 0
71 0
72 0
73 0
74 0
75 0
-76 0
-77 0
78 0
79 0
80 0
-81 0
-82 0
-83 0
84 0
-85 0
86 0
87 0
-88 0
-89 0
-90 0
-91 0
-92 0
-93 0
94 0
-95 0
96 0
97 0
-98 0
-99 0
-100 0
101 0
102 0
103 0
-104 0
105 0
-106 0
-107 0
108 0
109 0
110 0
-111 0
-112 0
-113 0
-114 0
115 0
-116 0
-117 0
118 0
119 0
120 0
-121 0
-122 0
-123 0
-124 0
125 0
-126 0
-127 0
128 0
129 0
130 0
-1 -2 32 0
-1 -3 33 0
-1 -4 34 0
-1 -5 35 0
-1 -6 36 0
-1 -7 37 0
-1 -8 38 0
-1 -9 39 0
-1 -10 40 0
-2 -3 43 0
-2 -4 44 0
-2 -5 45 0
-2 -6 46 0
-2 -7 47 0
-2 -8 48 0
-2 -9 49 0
-2 -10 50 0
-3 -4 54 0
-3 -5 55 0
-3 -6 56 0
-3 -7 57 0
-3 -8 58 0
-3 -9 59 0
-3 -10 60 0
-4 -5 65 0
-4 -6 66 0
-4 -7 67 0
-4 -8 68 0
-4 -9 69 0
-4 -10 70 0
-5 -6 76 0
-5 -7 77 0
-5 -8 78 0
-5 -9 79 0
-5 -10 80 0
-6 -7 87 0
-6 -8 88 0
-6 -9 89 0
-6 -10 90 0
-7 -8 98 0
-7 -9 99 0
-7 -10 100 0
-8 -9 109 0
-8 -10 110 0
-9 -10 120 0
-11 -12 32 0
-11 -13 33 0
-11 -14 34 0
-11 -15 35 0
-11 -16 36 0
-11 -17 37 0
-11 -18 38 0
-11 -19 39 0
-11 -20 40 0
-12 -13 43 0
-12 -14 44 0
-12 -15 45 0
-12 -16 46 0
-12 -17 47 0
-12 -18 48 0
-12 -19 49 0
-12 -20 50 0
-13 -14 54 0
-13 -15 55 0
-13 -16 56 0
-13 -17 57 0
-13 -18 58 0
-13 -19 59 0
-13 -20 60 0
-14 -15 65 0
-14 -16 66 0
-14 -17 67 0
-14 -18 68 0
-14 -19 69 0
-14 -20 70 0
-15 -16 76 0
-15 -17 77 0
-15 -18 78 0
-15 -19 79 0
-15 -20 80 0
-16 -17 87 0
-16 -18 88 0
-16 -19 89 0
-16 -20 90 0
-17 -18 98 0
-17 -19 99 0
-17 -20 100 0
-18 -19 109 0
-18 -20 110 0
-19 -20 120 0
-21 -22 32 0
-21 -23 33 0
-21 -24 34 0
-21 -25 35 0
-21 -26 36 0
-21 -27 37 0
-21 -28 38 0
-21 -29 39 0
-21 -30 40 0
-22 -23 43 0
-22 -24 44 0
-22 -25 45 0
-22 -26 46 0
-22 -27 47 0
-22 -28 48 0
-22 -29 49 0
-22 -30 50 0
-23 -24 54 0
-23 -25 55 0
-23 -26 56 0
-23 -27 57 0
-23 -28 58 0
-23 -29 59 0
-23 -30 60 0
-24 -25 65 0
-24 -26 66 0
-24 -27 67 0
-24 -28 68 0
-24 -29 69 0
-24 -30 70 0
-25 -26 76 0
-25 -27 77 0
-25 -28 78 0
-25 -29 79 0
-25 -30 80 0
-26 -27 87 0
-26 -28 88 0
-26 -29 89 0
-26 -30 90 0
-27 -28 98 0
-27 -29 99 0
-27 -30 100 0
-28 -29 109 0
-28 -30 110 0
-29 -30 120 0
